row=10;
column=10;
Board=[|8,2,2,3,5,8,4,4,5,4|3,3,3,1,2,2,8,8,7,2|3,3,3,1,2,2,2,7,8,8|2,2,2,4,3,3,5,5,5,8|2,2,2,6,3,3,7,7,4,6|2,3,3,7,6,7,1,4,4,4|5,7,5,5,1,1,1,4,4,4|5,6,5,8,4,4,4,1,1,1|5,7,6,3,6,5,5,1,1,1|6,6,5,3,6,5,4,1,1,1|];
right = [28,0,26,8,15,6,1,0,0,0];
bottom = [12,3,3,4,7,0,7,18,0,30];
